param set_len = 12;
param target_sum = 4010000940;
param values := [1] 283831758 [2] 922558087 [3] 460831998 [4] 165655357 [5] 1040025591 [6] 770039281 [7] 658608726 [8] 123639433 [9] 945360555 [10] 159616223 [11] 949401616 [12] 732286611 ;
